# Solution for model Bin Packing Problem
# Objective value = 1
z_0 1
I_0_1 0
I_0_2 0
I_0_3 0
I_0_4 0
I_0_5 0
I_0_6 0
I_0_7 0
I_0_8 0
I_0_9 0
I_0_10 0
I_0_11 0
I_0_12 0
I_0_13 0
I_1_0 0
I_1_2 0
I_1_3 0
I_1_4 0
I_1_5 0
I_1_6 0
I_1_7 0
I_1_8 0
I_1_9 0
I_1_10 0
I_1_11 0
I_1_12 0
I_1_13 0
I_2_0 0
I_2_1 0
I_2_3 0
I_2_4 0
I_2_5 0
I_2_6 0
I_2_7 0
I_2_8 0
I_2_9 0
I_2_10 0
I_2_11 0
I_2_12 0
I_2_13 0
I_3_0 0
I_3_1 0
I_3_2 0
I_3_4 0
I_3_5 0
I_3_6 0
I_3_7 0
I_3_8 0
I_3_9 0
I_3_10 0
I_3_11 0
I_3_12 0
I_3_13 0
I_4_0 0
I_4_1 0
I_4_2 0
I_4_3 0
I_4_5 0
I_4_6 0
I_4_7 0
I_4_8 0
I_4_9 0
I_4_10 0
I_4_11 0
I_4_12 0
I_4_13 0
I_5_0 0
I_5_1 0
I_5_2 0
I_5_3 0
I_5_4 0
I_5_6 0
I_5_7 0
I_5_8 0
I_5_9 0
I_5_10 0
I_5_11 0
I_5_12 0
I_5_13 0
I_6_0 0
I_6_1 0
I_6_2 0
I_6_3 0
I_6_4 0
I_6_5 0
I_6_7 0
I_6_8 0
I_6_9 0
I_6_10 0
I_6_11 0
I_6_12 0
I_6_13 0
I_7_0 0
I_7_1 0
I_7_2 0
I_7_3 0
I_7_4 0
I_7_5 0
I_7_6 0
I_7_8 0
I_7_9 0
I_7_10 0
I_7_11 0
I_7_12 0
I_7_13 0
I_8_0 0
I_8_1 0
I_8_2 0
I_8_3 0
I_8_4 0
I_8_5 0
I_8_6 0
I_8_7 0
I_8_9 0
I_8_10 0
I_8_11 0
I_8_12 0
I_8_13 0
I_9_0 0
I_9_1 0
I_9_2 0
I_9_3 0
I_9_4 0
I_9_5 0
I_9_6 0
I_9_7 0
I_9_8 0
I_9_10 0
I_9_11 0
I_9_12 0
I_9_13 0
I_10_0 0
I_10_1 0
I_10_2 0
I_10_3 0
I_10_4 0
I_10_5 0
I_10_6 0
I_10_7 0
I_10_8 0
I_10_9 0
I_10_11 0
I_10_12 0
I_10_13 0
I_11_0 0
I_11_1 0
I_11_2 0
I_11_3 0
I_11_4 0
I_11_5 0
I_11_6 0
I_11_7 0
I_11_8 0
I_11_9 0
I_11_10 0
I_11_12 0
I_11_13 0
I_12_0 0
I_12_1 0
I_12_2 0
I_12_3 0
I_12_4 0
I_12_5 0
I_12_6 0
I_12_7 0
I_12_8 0
I_12_9 0
I_12_10 0
I_12_11 0
I_12_13 1
I_13_0 0
I_13_1 0
I_13_2 0
I_13_3 0
I_13_4 0
I_13_5 0
I_13_6 0
I_13_7 0
I_13_8 0
I_13_9 0
I_13_10 0
I_13_11 0
I_13_12 0
b_0_1 1
b_0_2 1
b_0_3 1
b_0_4 1
b_0_5 1
b_0_6 1
b_0_7 1
b_0_8 1
b_0_9 1
b_0_10 1
b_0_11 1
b_0_12 1
b_0_13 1
b_1_0 0
b_1_2 1
b_1_3 1
b_1_4 1
b_1_5 1
b_1_6 1
b_1_7 1
b_1_8 1
b_1_9 1
b_1_10 1
b_1_11 1
b_1_12 1
b_1_13 1
b_2_0 0
b_2_1 0
b_2_3 1
b_2_4 1
b_2_5 1
b_2_6 1
b_2_7 1
b_2_8 1
b_2_9 1
b_2_10 1
b_2_11 1
b_2_12 1
b_2_13 1
b_3_0 0
b_3_1 0
b_3_2 0
b_3_4 1
b_3_5 1
b_3_6 1
b_3_7 1
b_3_8 1
b_3_9 1
b_3_10 1
b_3_11 1
b_3_12 1
b_3_13 1
b_4_0 0
b_4_1 0
b_4_2 0
b_4_3 0
b_4_5 1
b_4_6 1
b_4_7 1
b_4_8 1
b_4_9 1
b_4_10 1
b_4_11 1
b_4_12 1
b_4_13 1
b_5_0 0
b_5_1 0
b_5_2 0
b_5_3 0
b_5_4 0
b_5_6 1
b_5_7 1
b_5_8 1
b_5_9 1
b_5_10 1
b_5_11 1
b_5_12 1
b_5_13 1
b_6_0 0
b_6_1 0
b_6_2 0
b_6_3 0
b_6_4 0
b_6_5 0
b_6_7 1
b_6_8 1
b_6_9 1
b_6_10 1
b_6_11 1
b_6_12 1
b_6_13 1
b_7_0 0
b_7_1 0
b_7_2 0
b_7_3 0
b_7_4 0
b_7_5 0
b_7_6 0
b_7_8 1
b_7_9 1
b_7_10 1
b_7_11 1
b_7_12 1
b_7_13 1
b_8_0 0
b_8_1 0
b_8_2 0
b_8_3 0
b_8_4 0
b_8_5 0
b_8_6 0
b_8_7 0
b_8_9 1
b_8_10 1
b_8_11 1
b_8_12 1
b_8_13 1
b_9_0 0
b_9_1 0
b_9_2 0
b_9_3 0
b_9_4 0
b_9_5 0
b_9_6 0
b_9_7 0
b_9_8 0
b_9_10 1
b_9_11 1
b_9_12 1
b_9_13 1
b_10_0 0
b_10_1 0
b_10_2 0
b_10_3 0
b_10_4 0
b_10_5 0
b_10_6 0
b_10_7 0
b_10_8 0
b_10_9 0
b_10_11 1
b_10_12 1
b_10_13 1
b_11_0 0
b_11_1 0
b_11_2 0
b_11_3 0
b_11_4 0
b_11_5 0
b_11_6 0
b_11_7 0
b_11_8 0
b_11_9 0
b_11_10 0
b_11_12 1
b_11_13 1
b_12_0 0
b_12_1 0
b_12_2 0
b_12_3 0
b_12_4 0
b_12_5 0
b_12_6 0
b_12_7 0
b_12_8 0
b_12_9 0
b_12_10 0
b_12_11 0
b_12_13 0
b_13_0 0
b_13_1 0
b_13_2 0
b_13_3 0
b_13_4 0
b_13_5 0
b_13_6 0
b_13_7 0
b_13_8 0
b_13_9 0
b_13_10 0
b_13_11 0
b_13_12 0
p_0_0 1
p_1_0 1
p_2_0 1
p_3_0 1
p_4_0 1
p_5_0 1
p_6_0 1
p_7_0 1
p_8_0 1
p_9_0 1
p_10_0 1
p_11_0 1
p_12_0 1
p_13_0 1
rho_0 0
g_0 1
gamma_0 1
rho_1 0
g_1 0
gamma_1 1
rho_2 0
g_2 0
gamma_2 1
rho_3 0
g_3 0
gamma_3 1
rho_4 0
g_4 0
gamma_4 1
rho_5 0
g_5 0
gamma_5 1
rho_6 0
g_6 0
gamma_6 1
rho_7 0
g_7 0
gamma_7 1
rho_8 0
g_8 0
gamma_8 1
rho_9 0
g_9 0
gamma_9 1
rho_10 0
g_10 0
gamma_10 1
rho_11 0
g_11 0
gamma_11 1
rho_12 0
g_12 0
gamma_12 1
rho_13 0
g_13 0
gamma_13 1
radioactive_0 0
B1_0_1 0
B2_0_1 0
B1_0_2 0
B2_0_2 0
B1_0_3 0
B2_0_3 0
B1_0_4 0
B2_0_4 0
B1_0_5 0
B2_0_5 0
B1_0_6 0
B2_0_6 0
B1_0_7 0
B2_0_7 0
B1_0_8 0
B2_0_8 0
B1_0_9 0
B2_0_9 0
B1_0_10 0
B2_0_10 0
B1_0_11 0
B2_0_11 0
B1_0_12 0
B2_0_12 0
B1_0_13 0
B2_0_13 0
B1_1_0 0
B2_1_0 1
B1_1_2 0
B2_1_2 0
B1_1_3 0
B2_1_3 0
B1_1_4 0
B2_1_4 0
B1_1_5 0
B2_1_5 0
B1_1_6 0
B2_1_6 0
B1_1_7 0
B2_1_7 0
B1_1_8 0
B2_1_8 0
B1_1_9 0
B2_1_9 0
B1_1_10 0
B2_1_10 0
B1_1_11 0
B2_1_11 0
B1_1_12 0
B2_1_12 0
B1_1_13 0
B2_1_13 0
B1_2_0 0
B2_2_0 0
B1_2_1 0
B2_2_1 1
B1_2_3 0
B2_2_3 0
B1_2_4 0
B2_2_4 0
B1_2_5 0
B2_2_5 0
B1_2_6 0
B2_2_6 0
B1_2_7 0
B2_2_7 0
B1_2_8 0
B2_2_8 0
B1_2_9 0
B2_2_9 0
B1_2_10 0
B2_2_10 0
B1_2_11 0
B2_2_11 0
B1_2_12 0
B2_2_12 0
B1_2_13 0
B2_2_13 0
B1_3_0 0
B2_3_0 0
B1_3_1 0
B2_3_1 0
B1_3_2 0
B2_3_2 1
B1_3_4 0
B2_3_4 0
B1_3_5 0
B2_3_5 0
B1_3_6 0
B2_3_6 0
B1_3_7 0
B2_3_7 0
B1_3_8 0
B2_3_8 0
B1_3_9 0
B2_3_9 0
B1_3_10 0
B2_3_10 0
B1_3_11 0
B2_3_11 0
B1_3_12 0
B2_3_12 0
B1_3_13 0
B2_3_13 0
B1_4_0 0
B2_4_0 0
B1_4_1 0
B2_4_1 0
B1_4_2 0
B2_4_2 0
B1_4_3 0
B2_4_3 1
B1_4_5 0
B2_4_5 0
B1_4_6 0
B2_4_6 0
B1_4_7 0
B2_4_7 0
B1_4_8 0
B2_4_8 0
B1_4_9 0
B2_4_9 0
B1_4_10 0
B2_4_10 0
B1_4_11 0
B2_4_11 0
B1_4_12 0
B2_4_12 0
B1_4_13 0
B2_4_13 0
B1_5_0 0
B2_5_0 0
B1_5_1 0
B2_5_1 0
B1_5_2 0
B2_5_2 0
B1_5_3 0
B2_5_3 0
B1_5_4 0
B2_5_4 1
B1_5_6 0
B2_5_6 0
B1_5_7 0
B2_5_7 0
B1_5_8 0
B2_5_8 0
B1_5_9 0
B2_5_9 0
B1_5_10 0
B2_5_10 0
B1_5_11 0
B2_5_11 0
B1_5_12 0
B2_5_12 0
B1_5_13 0
B2_5_13 0
B1_6_0 0
B2_6_0 0
B1_6_1 0
B2_6_1 0
B1_6_2 0
B2_6_2 0
B1_6_3 0
B2_6_3 0
B1_6_4 0
B2_6_4 0
B1_6_5 0
B2_6_5 1
B1_6_7 0
B2_6_7 0
B1_6_8 0
B2_6_8 0
B1_6_9 0
B2_6_9 0
B1_6_10 0
B2_6_10 0
B1_6_11 0
B2_6_11 0
B1_6_12 0
B2_6_12 0
B1_6_13 0
B2_6_13 0
B1_7_0 0
B2_7_0 0
B1_7_1 0
B2_7_1 0
B1_7_2 0
B2_7_2 0
B1_7_3 0
B2_7_3 0
B1_7_4 0
B2_7_4 0
B1_7_5 0
B2_7_5 0
B1_7_6 0
B2_7_6 1
B1_7_8 0
B2_7_8 0
B1_7_9 0
B2_7_9 0
B1_7_10 0
B2_7_10 0
B1_7_11 0
B2_7_11 0
B1_7_12 0
B2_7_12 0
B1_7_13 0
B2_7_13 0
B1_8_0 0
B2_8_0 0
B1_8_1 0
B2_8_1 0
B1_8_2 0
B2_8_2 0
B1_8_3 0
B2_8_3 0
B1_8_4 0
B2_8_4 0
B1_8_5 0
B2_8_5 0
B1_8_6 0
B2_8_6 0
B1_8_7 0
B2_8_7 1
B1_8_9 0
B2_8_9 0
B1_8_10 0
B2_8_10 0
B1_8_11 0
B2_8_11 0
B1_8_12 0
B2_8_12 0
B1_8_13 0
B2_8_13 0
B1_9_0 0
B2_9_0 0
B1_9_1 0
B2_9_1 0
B1_9_2 0
B2_9_2 0
B1_9_3 0
B2_9_3 0
B1_9_4 0
B2_9_4 0
B1_9_5 0
B2_9_5 0
B1_9_6 0
B2_9_6 0
B1_9_7 0
B2_9_7 0
B1_9_8 0
B2_9_8 1
B1_9_10 0
B2_9_10 0
B1_9_11 0
B2_9_11 0
B1_9_12 0
B2_9_12 0
B1_9_13 0
B2_9_13 0
B1_10_0 0
B2_10_0 0
B1_10_1 0
B2_10_1 0
B1_10_2 0
B2_10_2 0
B1_10_3 0
B2_10_3 0
B1_10_4 0
B2_10_4 0
B1_10_5 0
B2_10_5 0
B1_10_6 0
B2_10_6 0
B1_10_7 0
B2_10_7 0
B1_10_8 0
B2_10_8 0
B1_10_9 0
B2_10_9 1
B1_10_11 0
B2_10_11 0
B1_10_12 0
B2_10_12 0
B1_10_13 0
B2_10_13 0
B1_11_0 0
B2_11_0 0
B1_11_1 0
B2_11_1 0
B1_11_2 0
B2_11_2 0
B1_11_3 0
B2_11_3 0
B1_11_4 0
B2_11_4 0
B1_11_5 0
B2_11_5 0
B1_11_6 0
B2_11_6 0
B1_11_7 0
B2_11_7 0
B1_11_8 0
B2_11_8 0
B1_11_9 0
B2_11_9 0
B1_11_10 0
B2_11_10 1
B1_11_12 0
B2_11_12 0
B1_11_13 0
B2_11_13 0
B1_12_0 0
B2_12_0 0
B1_12_1 0
B2_12_1 0
B1_12_2 0
B2_12_2 0
B1_12_3 0
B2_12_3 0
B1_12_4 0
B2_12_4 0
B1_12_5 0
B2_12_5 0
B1_12_6 0
B2_12_6 0
B1_12_7 0
B2_12_7 0
B1_12_8 0
B2_12_8 0
B1_12_9 0
B2_12_9 0
B1_12_10 0
B2_12_10 0
B1_12_11 0
B2_12_11 1
B1_12_13 0
B2_12_13 0
B1_13_0 0
B2_13_0 0
B1_13_1 0
B2_13_1 0
B1_13_2 0
B2_13_2 0
B1_13_3 0
B2_13_3 0
B1_13_4 0
B2_13_4 0
B1_13_5 0
B2_13_5 0
B1_13_6 0
B2_13_6 0
B1_13_7 0
B2_13_7 0
B1_13_8 0
B2_13_8 0
B1_13_9 0
B2_13_9 0
B1_13_10 0
B2_13_10 0
B1_13_11 0
B2_13_11 1
B1_13_12 0
B2_13_12 0
x_0 0
y_0 0
x_1 0
y_1 40
x_2 0
y_2 80
x_3 0
y_3 120
x_4 0
y_4 160
x_5 0
y_5 200
x_6 0
y_6 240
x_7 0
y_7 280
x_8 0
y_8 320
x_9 0
y_9 360
x_10 0
y_10 400
x_11 0
y_11 440
x_12 0
y_12 480
x_13 20
y_13 480
